
List of user-set options:

                                    Name   Value                used
                           compl_inf_tol = 1                     yes
                         constr_viol_tol = 1                     yes
                            dual_inf_tol = 1000                  yes
                           linear_solver = ma97                  yes
                              ma86_small = 1e-30                  no
                                  ma86_u = 0.0001                 no
                              ma97_order = best                  yes
                              ma97_small = 1e-30                 yes
                            ma97_switch1 = at_start              yes
                            ma97_switch2 = od_hd_reuse           yes
                                  ma97_u = 1e-06                 yes
                               ma97_umax = 0.5                   yes
                                max_iter = 1000                  yes
                    max_refinement_steps = 20                    yes
                    min_refinement_steps = 5                     yes
                                 mu_init = 1e-06                 yes
           mu_superlinear_decrease_power = 1.25                  yes
                   nlp_scaling_min_value = 1e-08                 yes
                        option_file_name = Preset_Case_632_pf.opt  yes
                             output_file = ./tmp/Preset_Case_632_pf.output  yes
                      print_user_options = yes                   yes
        required_infeasibility_reduction = 1                      no
                                     tol = 1e-08                 yes
                   warm_start_bound_frac = 1e-20                 yes
                   warm_start_bound_push = 1e-20                 yes
                   warm_start_init_point = yes                   yes
              warm_start_mult_bound_push = 1e-20                 yes
                warm_start_mult_init_max = 1e+40                 yes
             warm_start_slack_bound_frac = 1e-20                 yes
             warm_start_slack_bound_push = 1e-20                 yes

******************************************************************************
This program contains Ipopt, a library for large-scale nonlinear optimization.
 Ipopt is released as open source code under the Eclipse Public License (EPL).
         For more information visit http://projects.coin-or.org/Ipopt
******************************************************************************

This is Ipopt version 3.12.10, running with linear solver ma97.

Number of nonzeros in equality constraint Jacobian...:   123443
Number of nonzeros in inequality constraint Jacobian.:      213
Number of nonzeros in Lagrangian Hessian.............:    49069

Total number of variables............................:    31591
                     variables with only lower bounds:    12912
                variables with lower and upper bounds:    15130
                     variables with only upper bounds:        0
Total number of equality constraints.................:    31483
Total number of inequality constraints...............:       25
        inequality constraints with only lower bounds:        4
   inequality constraints with lower and upper bounds:        0
        inequality constraints with only upper bounds:       21

iter    objective    inf_pr   inf_du lg(mu)  ||d||  lg(rg) alpha_du alpha_pr  ls
   0 -5.3865812e+00 4.04e-03 1.02e+00  -6.0 0.00e+00    -  0.00e+00 0.00e+00   0
   1 -5.3860494e+00 1.50e-02 1.02e+00  -6.0 2.82e+05    -  1.19e-04 5.07e-05h  6
   2 -5.3877451e+00 1.50e-02 5.15e+01  -6.0 3.76e+03    -  2.26e-01 1.97e-03h  1
   3 -5.6498469e+00 2.66e+00 1.26e+03  -6.0 3.75e+03    -  1.64e-01 3.06e-01f  1
   4 -5.8539955e+00 6.60e+00 1.72e+03  -6.0 2.20e+03    -  3.68e-01 4.10e-01h  1
   5 -5.8522425e+00 6.10e+00 1.59e+03  -6.0 3.05e+02  -4.0 2.68e-07 7.63e-02h  1
   6 -5.9137160e+00 5.02e+00 1.24e+03  -6.0 1.62e+03    -  8.68e-02 3.04e-01h  1
   7 -5.9943899e+00 1.89e+01 8.18e+02  -6.0 1.14e+03    -  1.82e-01 1.00e+00h  1
   8 -5.9784791e+00 8.45e+00 3.67e+02  -6.0 5.33e+02    -  4.61e-02 5.53e-01h  1
   9 -5.9623025e+00 3.37e+00 5.52e+04  -6.0 2.27e+01  -4.5 2.77e-01 6.01e-01h  1
iter    objective    inf_pr   inf_du lg(mu)  ||d||  lg(rg) alpha_du alpha_pr  ls
  10 -5.9609130e+00 2.96e+00 4.07e+04  -6.0 1.51e+01  -5.0 9.03e-03 1.22e-01h  1
  11 -5.9556308e+00 5.98e-02 1.69e+04  -6.0 4.49e+01  -5.4 6.59e-01 1.00e+00h  1
  12 -5.9545086e+00 6.34e-03 6.66e+03  -6.0 1.78e+01  -5.9 4.94e-01 1.00e+00h  1
  13 -5.9594797e+00 1.92e-01 1.53e+03  -6.0 5.05e+01  -6.4 7.27e-01 1.00e+00h  1
  14 -5.9621969e+00 1.20e-01 1.28e+02  -6.0 1.25e+02  -6.9 9.99e-01 3.10e-01h  1
  15 -5.9757449e+00 1.33e+00 1.55e+02  -6.0 4.14e+02  -7.3 3.59e-01 5.03e-01h  1
  16 -5.9876722e+00 1.15e+00 1.31e+03  -6.0 2.96e+03    -  1.30e-01 1.63e-01h  1
  17 -5.9943305e+00 9.95e-01 2.89e+04  -6.0 1.62e+03    -  8.34e-01 1.71e-01h  1
  18 -6.0290826e+00 6.39e+00 8.01e+03  -6.0 1.52e+03    -  7.10e-01 1.00e+00h  1
  19 -6.0369128e+00 5.03e+00 1.64e+03  -6.0 1.03e+03    -  3.14e-01 2.92e-01h  1
iter    objective    inf_pr   inf_du lg(mu)  ||d||  lg(rg) alpha_du alpha_pr  ls
  20 -6.0518683e+00 5.58e+00 4.55e+04  -6.0 1.43e+03    -  6.86e-01 5.17e-01h  1
  21 -6.0637162e+00 2.85e+00 2.44e+05  -6.0 4.09e+02    -  1.00e+00 5.50e-01h  1
  22 -6.0707291e+00 3.27e+00 1.20e+05  -6.0 2.38e+03    -  5.15e-02 1.43e-01h  1
  23 -6.0914122e+00 1.31e+00 3.95e+04  -6.0 2.71e+02  -6.9 4.87e-01 6.59e-01h  1
  24r-6.0914122e+00 1.31e+00 1.00e+03   0.0 0.00e+00  -7.4 0.00e+00 3.52e-07R  2
  25r-6.1085503e+00 1.31e+00 1.00e+03   0.0 1.39e+04    -  5.48e-06 1.62e-06f  1
  26 -6.1082227e+00 1.30e+00 3.18e+03  -6.0 4.94e+02    -  1.22e-02 1.03e-02h  1
  27 -6.1053857e+00 1.15e+00 2.11e+05  -6.0 1.09e+01    -  1.03e-02 1.19e-01h  1
  28 -6.1038386e+00 1.06e+00 1.96e+05  -6.0 1.03e+01    -  1.43e-01 7.12e-02h  1
  29 -6.0992980e+00 8.31e-01 1.53e+05  -6.0 1.03e+01    -  5.48e-02 2.19e-01h  1
iter    objective    inf_pr   inf_du lg(mu)  ||d||  lg(rg) alpha_du alpha_pr  ls
  30 -6.0990091e+00 8.12e-01 1.50e+05  -6.0 9.03e+00    -  5.71e-01 2.28e-02h  1
  31 -6.0824427e+00 1.63e-02 4.15e+01  -6.0 1.07e+01    -  8.56e-01 1.00e+00h  1
  32 -6.0843711e+00 4.03e-02 1.84e+01  -6.0 1.40e+01  -5.2 7.87e-01 5.58e-01h  1
  33 -6.0858339e+00 3.58e-02 9.36e+00  -6.0 1.09e+01  -4.7 9.50e-01 1.00e+00h  1
  34 -6.0856862e+00 2.05e-03 1.75e-01  -6.0 5.06e+00  -5.2 9.93e-01 1.00e+00h  1
  35 -6.0869459e+00 7.00e-03 1.90e-01  -6.0 1.25e+01  -5.7 9.96e-01 1.00e+00h  1
  36 -6.0901825e+00 6.56e-02 4.37e+00  -6.0 3.30e+01  -6.2 1.00e+00 1.00e+00h  1
  37 -6.0949967e+00 2.85e-01 2.02e+01  -6.0 7.20e+01  -6.6 1.00e+00 7.51e-01h  1
  38 -6.1043163e+00 1.75e+00 1.65e+02  -6.0 1.12e+02  -7.1 1.00e+00 1.00e+00h  1
  39 -6.1096889e+00 2.17e+00 2.97e+02  -6.0 3.38e+02  -7.6 1.00e+00 5.01e-01h  1
iter    objective    inf_pr   inf_du lg(mu)  ||d||  lg(rg) alpha_du alpha_pr  ls
  40 -6.1236327e+00 4.03e+00 1.20e+03  -6.0 3.58e+03    -  3.97e-01 1.38e-01h  1
  41 -6.1369658e+00 1.77e+00 6.26e+02  -6.0 7.74e+02    -  1.00e+00 7.60e-01h  1
  42 -6.1370926e+00 1.77e+00 6.24e+02  -6.0 7.98e+02  -7.2 1.96e-02 3.91e-03h  1
  43 -6.1344525e+00 7.86e-01 2.68e+02  -6.0 4.99e+02    -  7.52e-01 8.75e-01h  1
  44 -6.1351829e+00 9.55e-01 2.48e+03  -6.0 9.65e+03    -  2.94e-02 1.12e-02h  1
  45 -6.1366237e+00 2.32e+00 2.54e+01  -6.0 3.92e+02    -  1.00e+00 1.00e+00h  1
  46 -6.1380916e+00 1.93e+00 5.73e+03  -6.0 4.75e+02    -  1.71e-01 2.90e-01h  1
  47 -6.1393380e+00 1.69e+00 1.46e+04  -6.0 5.22e+02    -  4.94e-01 2.35e-01h  1
  48 -6.1435509e+00 2.92e+00 2.11e+04  -6.0 5.46e+02    -  1.00e+00 7.58e-01h  1
  49 -6.1461502e+00 2.80e+00 1.45e+04  -6.0 6.71e+02    -  4.17e-01 3.99e-01h  1
iter    objective    inf_pr   inf_du lg(mu)  ||d||  lg(rg) alpha_du alpha_pr  ls
  50 -6.1500285e+00 1.30e+00 1.42e+04  -6.0 2.19e+02  -7.6 7.03e-01 6.34e-01h  1
  51r-6.1500285e+00 1.30e+00 1.00e+03  -0.1 0.00e+00    -  0.00e+00 3.22e-07R  3
  52r-6.1571743e+00 1.30e+00 1.00e+03  -0.1 6.72e+03    -  9.00e-06 2.21e-06f  1
  53 -6.1560880e+00 1.14e+00 9.48e+05  -6.0 1.20e+00    -  7.10e-01 1.23e-01h  1
  54 -6.1537160e+00 7.94e-01 2.34e+06  -6.0 4.56e-01    -  1.23e-01 3.02e-01h  1
  55 -6.1482112e+00 1.46e-05 1.15e+02  -6.0 3.27e-01    -  6.89e-01 1.00e+00h  1
  56 -6.1482006e+00 4.06e-07 9.71e-02  -6.0 8.90e-02    -  1.00e+00 1.00e+00h  1
  57 -6.1486178e+00 1.15e-02 1.43e+03  -6.0 1.34e+02    -  9.24e-01 1.00e+00H  1
  58 -6.1488429e+00 5.54e-01 4.33e+02  -6.0 1.99e+02  -8.1 9.93e-01 6.97e-01h  1
  59 -6.1489794e+00 4.49e-01 3.25e+02  -6.0 4.03e+02    -  1.00e+00 2.50e-01h  3
iter    objective    inf_pr   inf_du lg(mu)  ||d||  lg(rg) alpha_du alpha_pr  ls
  60 -6.1491402e+00 5.58e-01 2.50e+02  -6.0 6.14e+02    -  1.00e+00 2.30e-01h  3
  61 -6.1492425e+00 6.75e-01 2.16e+02  -6.0 8.54e+02    -  6.15e-01 1.37e-01h  3
  62 -6.1493833e+00 4.99e-01 5.26e+02  -6.0 4.30e+02    -  1.00e+00 7.68e-01H  1
  63 -6.1493638e+00 2.65e-01 8.06e-01  -6.0 1.08e+02    -  7.30e-01 1.00e+00h  1
  64 -6.1493610e+00 7.55e-02 5.25e-03  -6.0 4.14e+01    -  1.00e+00 1.00e+00h  1
  65 -6.1493605e+00 2.16e-04 2.59e-05  -6.0 2.68e+00    -  1.00e+00 1.00e+00h  1
  66 -6.1493605e+00 1.53e-07 1.60e-08  -6.0 7.27e-02    -  1.00e+00 1.00e+00h  1
  67 -6.1494350e+00 8.86e-02 5.77e+01  -7.5 9.46e+01    -  9.62e-01 7.62e-01h  1
  68 -6.1494393e+00 1.79e-02 9.51e+00  -7.5 2.29e+01    -  1.00e+00 8.77e-01h  1
  69 -6.1494388e+00 1.15e-04 3.11e-03  -7.5 2.57e+00    -  1.00e+00 1.00e+00h  1
iter    objective    inf_pr   inf_du lg(mu)  ||d||  lg(rg) alpha_du alpha_pr  ls
  70 -6.1494388e+00 2.96e-10 4.20e-10  -7.5 4.13e-03    -  1.00e+00 1.00e+00h  1
  71 -6.1494404e+00 1.12e-04 6.63e-01  -9.0 3.01e+00    -  9.22e-01 8.50e-01h  1
  72 -6.1494406e+00 3.50e-06 8.44e-05  -9.0 4.52e-01    -  1.00e+00 1.00e+00f  1
  73 -6.1494406e+00 2.84e-10 4.37e-09  -9.0 1.41e-04    -  1.00e+00 1.00e+00h  1

Number of Iterations....: 73

                                   (scaled)                 (unscaled)
Objective...............:  -4.8042504916167390e+00   -6.1494406292694261e+00
Dual infeasibility......:   4.3707501211448752e-09    5.5945601550654400e-09
Constraint violation....:   2.8380963074461918e-10    2.8380963074461918e-10
Complementarity.........:   1.4898589648540917e-09    1.9070194750132375e-09
Overall NLP error.......:   4.3707501211448752e-09    5.5945601550654400e-09


Number of objective function evaluations             = 103
Number of objective gradient evaluations             = 74
Number of equality constraint evaluations            = 103
Number of inequality constraint evaluations          = 103
Number of equality constraint Jacobian evaluations   = 76
Number of inequality constraint Jacobian evaluations = 76
Number of Lagrangian Hessian evaluations             = 73
Total CPU secs in IPOPT (w/o function evaluations)   =    164.216
Total CPU secs in NLP function evaluations           =      2.736

EXIT: Optimal Solution Found.
